50
16057

241 252
461 518
323 872
302 667
663 595
654 304
494 632
473 691
493 376
425 54
900 538
329 922
916 890
839 54
678 855
50 127
244 52
565 213
164 114
425 488
425 112
190 757
461 47
93 14
644 725
641 595
856 412
247 253
141 174
692 59
997 367
541 483
542 114
886 503
38 728
882 283
481 408
576 469
601 389
252 385
876 362
864 378
683 619
59 862
543 191
207 797
687 761
685 171
251 783
553 2
